17	4
25	28	37	26	
0	0	0	0	0	3	2	3	4	
2	10	9	2	5	3	5	7	8	
2	10	7	8	3	3	5	8	16	
10	0	0	10	0	3	13	15	17	
6	2	1	8	0	3	6	12	17	
25	2	9	0	3	2	17	17	
50	2	5	6	0	3	9	16	17	
225	8	4	10	9	3	9	10	17	
25	0	6	10	9	3	11	13	15	
150	2	5	0	0	3	13	17	17	
250	0	10	0	6	1	14	
150	8	10	6	4	3	15	17	17	
7	3	0	10	0	3	17	17	17	
5	0	3	6	8	2	17	17	
7	4	4	2	0	2	17	17	
10	7	3	9	10	3	17	17	17	
0	0	0	0	0	0	
